peakDumbCharging = 25900; 
Machine = anon_enum(16); 
machineSpeed = [3700,3700,3700,3700,3700,3700,3700,3700,3700,3700,3700,3700,3700,3700,3700,3700]; 
machineLoad = [3700,3700,3700,3700,3700,3700,3700,3700,3700,3700,3700,3700,3700,3700,3700,3700]; 
Car = anon_enum(38); 
demandCar = [8920,20640,9000,3080,16080,1680,8120,6560,8280,6600,8560,7280,7480,11560,4880,22760,15920,11400,8600,4480,1720,4520,29840,1560,20680,23560,800,3400,3480,9280,7920,6480,17480,12400,5080,5720,11960,10960]; 
arrivalCar = [82,70,69,69,69,67,66,61,60,58,56,55,54,54,53,53,52,50,49,48,48,47,47,45,44,43,43,42,41,40,39,39,39,39,38,37,36,19]; 
departureCar = [89,78,73,71,75,69,71,64,66,62,61,61,60,59,57,64,65,57,55,52,50,51,61,46,52,55,49,45,44,44,45,44,51,46,41,41,43,23]; 
